c Qdimacs file from skolem function generator
p cnf 285 772
c a 189 254 255 256 257 258 259 260 261 262 263 264 265 266 267 268 269 270 271 272 273 274 275 276 277 278 279 280 281 282 283 284 0
c e 190 191 192 193 194 195 196 197 198 199 200 201 202 203 204 205 206 207 208 209 210 211 212 213 214 215 216 217 218 219 220 221 222 223 224 225 226 227 228 229 230 231 232 233 234 235 236 237 238 239 240 241 242 243 244 245 246 247 248 249 250 251 252 253 1 2 3 4 5 6 7 8 9 10 11 12 13 14 15 16 17 18 19 20 21 22 23 24 25 26 27 28 29 30 31 32 33 34 35 36 37 38 39 40 41 42 43 44 45 46 47 48 49 50 51 52 53 54 55 56 57 58 59 60 61 62 63 64 65 66 67 68 69 70 71 72 73 74 75 76 77 78 79 80 81 82 83 84 85 86 87 88 89 90 91 92 93 94 95 96 97 98 99 100 101 102 103 104 105 106 107 108 109 110 111 112 113 114 115 116 117 118 119 120 121 122 123 124 125 126 127 128 129 130 131 132 133 134 135 136 137 138 139 140 141 142 143 144 145 146 147 148 149 150 151 152 153 154 155 156 157 158 159 160 161 162 163 164 165 166 167 168 169 170 171 172 173 174 175 176 177 178 179 180 181 182 183 184 185 186 187 188 285 0
4 5 69 -74 0
-4 74 0
-4 -69 0
-4 -5 0
5 254 -6 0
5 -254 6 0
-5 -254 -6 0
-5 254 6 0
6 -7 -68 0
6 7 68 0
-6 7 -68 0
-6 -7 68 0
7 192 8 0
7 193 8 0
-7 -8 0
-7 -192 -193 0
8 192 -193 9 0
8 -192 193 9 0
-8 -9 0
-8 192 193 0
-8 -192 -193 0
9 194 10 0
9 195 10 0
-9 -10 0
-9 -194 -195 0
10 194 -195 11 0
10 -194 195 11 0
-10 -11 0
-10 194 195 0
-10 -194 -195 0
11 196 12 0
11 197 12 0
-11 -12 0
-11 -196 -197 0
12 196 -197 13 0
12 -196 197 13 0
-12 -13 0
-12 196 197 0
-12 -196 -197 0
13 198 14 0
13 199 14 0
-13 -14 0
-13 -198 -199 0
14 198 -199 15 0
14 -198 199 15 0
-14 -15 0
-14 198 199 0
-14 -198 -199 0
15 200 16 0
15 201 16 0
-15 -16 0
-15 -200 -201 0
16 200 -201 17 0
16 -200 201 17 0
-16 -17 0
-16 200 201 0
-16 -200 -201 0
17 202 18 0
17 203 18 0
-17 -18 0
-17 -202 -203 0
18 202 -203 19 0
18 -202 203 19 0
-18 -19 0
-18 202 203 0
-18 -202 -203 0
19 204 20 0
19 205 20 0
-19 -20 0
-19 -204 -205 0
20 21 -67 0
-20 -21 0
-20 67 0
21 206 22 0
21 207 22 0
-21 -22 0
-21 -206 -207 0
22 206 -207 23 0
22 -206 207 23 0
-22 -23 0
-22 206 207 0
-22 -206 -207 0
23 208 24 0
23 209 24 0
-23 -24 0
-23 -208 -209 0
24 208 -209 25 0
24 -208 209 25 0
-24 -25 0
-24 208 209 0
-24 -208 -209 0
25 210 26 0
25 211 26 0
-25 -26 0
-25 -210 -211 0
26 210 -211 27 0
26 -210 211 27 0
-26 -27 0
-26 210 211 0
-26 -210 -211 0
27 212 28 0
27 213 28 0
-27 -28 0
-27 -212 -213 0
28 212 -213 29 0
28 -212 213 29 0
-28 -29 0
-28 212 213 0
-28 -212 -213 0
29 214 30 0
29 215 30 0
-29 -30 0
-29 -214 -215 0
30 214 -215 31 0
30 -214 215 31 0
-30 -31 0
-30 214 215 0
-30 -214 -215 0
31 216 32 0
31 217 32 0
-31 -32 0
-31 -216 -217 0
32 216 -217 33 0
32 -216 217 33 0
-32 -33 0
-32 216 217 0
-32 -216 -217 0
33 218 34 0
33 219 34 0
-33 -34 0
-33 -218 -219 0
34 218 -219 35 0
34 -218 219 35 0
-34 -35 0
-34 218 219 0
-34 -218 -219 0
35 220 36 0
35 221 36 0
-35 -36 0
-35 -220 -221 0
36 220 -221 37 0
36 -220 221 37 0
-36 -37 0
-36 220 221 0
-36 -220 -221 0
37 222 38 0
37 223 38 0
-37 -38 0
-37 -222 -223 0
38 222 -223 39 0
38 -222 223 39 0
-38 -39 0
-38 222 223 0
-38 -222 -223 0
39 224 40 0
39 225 40 0
-39 -40 0
-39 -224 -225 0
40 224 -225 41 0
40 -224 225 41 0
-40 -41 0
-40 224 225 0
-40 -224 -225 0
41 226 42 0
41 227 42 0
-41 -42 0
-41 -226 -227 0
42 43 -66 0
-42 -43 0
-42 66 0
43 228 44 0
43 229 44 0
-43 -44 0
-43 -228 -229 0
44 228 -229 45 0
44 -228 229 45 0
-44 -45 0
-44 228 229 0
-44 -228 -229 0
45 230 46 0
45 231 46 0
-45 -46 0
-45 -230 -231 0
46 230 -231 47 0
46 -230 231 47 0
-46 -47 0
-46 230 231 0
-46 -230 -231 0
47 232 48 0
47 233 48 0
-47 -48 0
-47 -232 -233 0
48 232 -233 49 0
48 -232 233 49 0
-48 -49 0
-48 232 233 0
-48 -232 -233 0
49 234 50 0
49 235 50 0
-49 -50 0
-49 -234 -235 0
50 234 -235 51 0
50 -234 235 51 0
-50 -51 0
-50 234 235 0
-50 -234 -235 0
51 236 52 0
51 237 52 0
-51 -52 0
-51 -236 -237 0
52 236 -237 53 0
52 -236 237 53 0
-52 -53 0
-52 236 237 0
-52 -236 -237 0
53 238 54 0
53 239 54 0
-53 -54 0
-53 -238 -239 0
54 238 -239 55 0
54 -238 239 55 0
-54 -55 0
-54 238 239 0
-54 -238 -239 0
55 240 56 0
55 241 56 0
-55 -56 0
-55 -240 -241 0
56 240 -241 57 0
56 -240 241 57 0
-56 -57 0
-56 240 241 0
-56 -240 -241 0
57 242 58 0
57 243 58 0
-57 -58 0
-57 -242 -243 0
58 242 -243 59 0
58 -242 243 59 0
-58 -59 0
-58 242 243 0
-58 -242 -243 0
59 244 60 0
59 245 60 0
-59 -60 0
-59 -244 -245 0
60 244 -245 61 0
60 -244 245 61 0
-60 -61 0
-60 244 245 0
-60 -244 -245 0
61 246 62 0
61 247 62 0
-61 -62 0
-61 -246 -247 0
62 63 -65 0
-62 -63 0
-62 65 0
63 248 64 0
63 249 64 0
63 248 249 0
-63 -248 -249 0
-63 -249 -64 0
-63 -248 -64 0
64 -250 -251 0
-64 250 0
-64 251 0
65 246 -247 0
65 -246 247 0
-65 -246 -247 0
-65 246 247 0
66 226 -227 0
66 -226 227 0
-66 -226 -227 0
-66 226 227 0
67 204 -205 0
67 -204 205 0
-67 -204 -205 0
-67 204 205 0
68 190 -191 0
68 -190 191 0
-68 -190 -191 0
-68 190 191 0
69 -70 -72 0
69 70 72 0
-69 70 -72 0
-69 -70 72 0
70 190 71 0
70 191 71 0
-70 -71 0
-70 -190 -191 0
71 190 -191 7 0
71 -190 191 7 0
-71 -7 0
-71 190 191 0
-71 -190 -191 0
72 189 -73 0
72 -189 73 0
-72 -189 -73 0
-72 189 73 0
73 252 -253 0
73 -252 253 0
-73 -252 -253 0
-73 252 253 0
74 75 78 -81 0
-74 81 0
-74 -78 0
-74 -75 0
75 255 -76 0
75 -255 76 0
-75 -255 -76 0
-75 255 76 0
76 -9 -77 0
76 9 77 0
-76 9 -77 0
-76 -9 77 0
77 192 -193 0
77 -192 193 0
-77 -192 -193 0
-77 192 193 0
78 256 -79 0
78 -256 79 0
-78 -256 -79 0
-78 256 79 0
79 -11 -80 0
79 11 80 0
-79 11 -80 0
-79 -11 80 0
80 194 -195 0
80 -194 195 0
-80 -194 -195 0
-80 194 195 0
81 82 85 -88 0
-81 88 0
-81 -85 0
-81 -82 0
82 257 -83 0
82 -257 83 0
-82 -257 -83 0
-82 257 83 0
83 -13 -84 0
83 13 84 0
-83 13 -84 0
-83 -13 84 0
84 196 -197 0
84 -196 197 0
-84 -196 -197 0
-84 196 197 0
85 258 -86 0
85 -258 86 0
-85 -258 -86 0
-85 258 86 0
86 -15 -87 0
86 15 87 0
-86 15 -87 0
-86 -15 87 0
87 198 -199 0
87 -198 199 0
-87 -198 -199 0
-87 198 199 0
88 89 92 -95 0
-88 95 0
-88 -92 0
-88 -89 0
89 259 -90 0
89 -259 90 0
-89 -259 -90 0
-89 259 90 0
90 -17 -91 0
90 17 91 0
-90 17 -91 0
-90 -17 91 0
91 200 -201 0
91 -200 201 0
-91 -200 -201 0
-91 200 201 0
92 260 -93 0
92 -260 93 0
-92 -260 -93 0
-92 260 93 0
93 -19 -94 0
93 19 94 0
-93 19 -94 0
-93 -19 94 0
94 202 -203 0
94 -202 203 0
-94 -202 -203 0
-94 202 203 0
95 96 98 -101 0
-95 101 0
-95 -98 0
-95 -96 0
96 261 -97 0
96 -261 97 0
-96 -261 -97 0
-96 261 97 0
97 -21 -67 0
97 21 67 0
-97 21 -67 0
-97 -21 67 0
98 262 -99 0
98 -262 99 0
-98 -262 -99 0
-98 262 99 0
99 -23 -100 0
99 23 100 0
-99 23 -100 0
-99 -23 100 0
100 206 -207 0
100 -206 207 0
-100 -206 -207 0
-100 206 207 0
101 102 105 -108 0
-101 108 0
-101 -105 0
-101 -102 0
102 263 -103 0
102 -263 103 0
-102 -263 -103 0
-102 263 103 0
103 -25 -104 0
103 25 104 0
-103 25 -104 0
-103 -25 104 0
104 208 -209 0
104 -208 209 0
-104 -208 -209 0
-104 208 209 0
105 264 -106 0
105 -264 106 0
-105 -264 -106 0
-105 264 106 0
106 -27 -107 0
106 27 107 0
-106 27 -107 0
-106 -27 107 0
107 210 -211 0
107 -210 211 0
-107 -210 -211 0
-107 210 211 0
108 109 112 -115 0
-108 115 0
-108 -112 0
-108 -109 0
109 265 -110 0
109 -265 110 0
-109 -265 -110 0
-109 265 110 0
110 -29 -111 0
110 29 111 0
-110 29 -111 0
-110 -29 111 0
111 212 -213 0
111 -212 213 0
-111 -212 -213 0
-111 212 213 0
112 266 -113 0
112 -266 113 0
-112 -266 -113 0
-112 266 113 0
113 -31 -114 0
113 31 114 0
-113 31 -114 0
-113 -31 114 0
114 214 -215 0
114 -214 215 0
-114 -214 -215 0
-114 214 215 0
115 116 119 -122 0
-115 122 0
-115 -119 0
-115 -116 0
116 267 -117 0
116 -267 117 0
-116 -267 -117 0
-116 267 117 0
117 -33 -118 0
117 33 118 0
-117 33 -118 0
-117 -33 118 0
118 216 -217 0
118 -216 217 0
-118 -216 -217 0
-118 216 217 0
119 268 -120 0
119 -268 120 0
-119 -268 -120 0
-119 268 120 0
120 -35 -121 0
120 35 121 0
-120 35 -121 0
-120 -35 121 0
121 218 -219 0
121 -218 219 0
-121 -218 -219 0
-121 218 219 0
122 123 126 -129 0
-122 129 0
-122 -126 0
-122 -123 0
123 269 -124 0
123 -269 124 0
-123 -269 -124 0
-123 269 124 0
124 -37 -125 0
124 37 125 0
-124 37 -125 0
-124 -37 125 0
125 220 -221 0
125 -220 221 0
-125 -220 -221 0
-125 220 221 0
126 270 -127 0
126 -270 127 0
-126 -270 -127 0
-126 270 127 0
127 -39 -128 0
127 39 128 0
-127 39 -128 0
-127 -39 128 0
128 222 -223 0
128 -222 223 0
-128 -222 -223 0
-128 222 223 0
129 130 133 -135 0
-129 135 0
-129 -133 0
-129 -130 0
130 271 -131 0
130 -271 131 0
-130 -271 -131 0
-130 271 131 0
131 -41 -132 0
131 41 132 0
-131 41 -132 0
-131 -41 132 0
132 224 -225 0
132 -224 225 0
-132 -224 -225 0
-132 224 225 0
133 272 -134 0
133 -272 134 0
-133 -272 -134 0
-133 272 134 0
134 -43 -66 0
134 43 66 0
-134 43 -66 0
-134 -43 66 0
135 136 139 -142 0
-135 142 0
-135 -139 0
-135 -136 0
136 273 -137 0
136 -273 137 0
-136 -273 -137 0
-136 273 137 0
137 -45 -138 0
137 45 138 0
-137 45 -138 0
-137 -45 138 0
138 228 -229 0
138 -228 229 0
-138 -228 -229 0
-138 228 229 0
139 274 -140 0
139 -274 140 0
-139 -274 -140 0
-139 274 140 0
140 -47 -141 0
140 47 141 0
-140 47 -141 0
-140 -47 141 0
141 230 -231 0
141 -230 231 0
-141 -230 -231 0
-141 230 231 0
142 143 146 -149 0
-142 149 0
-142 -146 0
-142 -143 0
143 275 -144 0
143 -275 144 0
-143 -275 -144 0
-143 275 144 0
144 -49 -145 0
144 49 145 0
-144 49 -145 0
-144 -49 145 0
145 232 -233 0
145 -232 233 0
-145 -232 -233 0
-145 232 233 0
146 276 -147 0
146 -276 147 0
-146 -276 -147 0
-146 276 147 0
147 -51 -148 0
147 51 148 0
-147 51 -148 0
-147 -51 148 0
148 234 -235 0
148 -234 235 0
-148 -234 -235 0
-148 234 235 0
149 150 153 -156 0
-149 156 0
-149 -153 0
-149 -150 0
150 277 -151 0
150 -277 151 0
-150 -277 -151 0
-150 277 151 0
151 -53 -152 0
151 53 152 0
-151 53 -152 0
-151 -53 152 0
152 236 -237 0
152 -236 237 0
-152 -236 -237 0
-152 236 237 0
153 278 -154 0
153 -278 154 0
-153 -278 -154 0
-153 278 154 0
154 -55 -155 0
154 55 155 0
-154 55 -155 0
-154 -55 155 0
155 238 -239 0
155 -238 239 0
-155 -238 -239 0
-155 238 239 0
156 157 160 163 -166 0
-156 166 0
-156 -163 0
-156 -157 0
-156 -160 0
157 279 -158 0
157 -279 158 0
-157 -279 -158 0
-157 279 158 0
158 -57 -159 0
158 57 159 0
-158 57 -159 0
-158 -57 159 0
159 240 -241 0
159 -240 241 0
-159 -240 -241 0
-159 240 241 0
160 280 -161 0
160 -280 161 0
-160 -280 -161 0
-160 280 161 0
161 -59 -162 0
161 59 162 0
-161 59 -162 0
-161 -59 162 0
162 242 -243 0
162 -242 243 0
-162 -242 -243 0
-162 242 243 0
163 281 -164 0
163 -281 164 0
-163 -281 -164 0
-163 281 164 0
164 -61 -165 0
164 61 165 0
-164 61 -165 0
-164 -61 165 0
165 244 -245 0
165 -244 245 0
-165 -244 -245 0
-165 244 245 0
166 167 169 172 0
-166 -167 0
-166 -172 0
-166 -169 0
167 282 -168 0
167 -282 168 0
-167 -282 -168 0
-167 282 168 0
168 -63 -65 0
168 63 65 0
-168 63 -65 0
-168 -63 65 0
169 283 -170 0
169 -283 170 0
-169 -283 -170 0
-169 283 170 0
170 64 -171 0
170 -64 171 0
-170 -64 -171 0
-170 64 171 0
171 248 -249 0
171 -248 249 0
-171 -248 -249 0
-171 248 249 0
172 284 -173 0
172 -284 173 0
-172 -284 -173 0
-172 284 173 0
173 250 -251 0
173 -250 251 0
-173 -250 -251 0
-173 250 251 0
174 167 169 172 -175 0
-174 175 0
-174 -172 0
-174 -167 0
-174 -169 0
175 160 163 -176 0
-175 176 0
-175 -163 0
-175 -160 0
176 153 157 -177 0
-176 177 0
-176 -157 0
-176 -153 0
177 146 150 -178 0
-177 178 0
-177 -150 0
-177 -146 0
178 139 143 -179 0
-178 179 0
-178 -143 0
-178 -139 0
179 133 136 -180 0
-179 180 0
-179 -136 0
-179 -133 0
180 126 130 -181 0
-180 181 0
-180 -130 0
-180 -126 0
181 119 123 -182 0
-181 182 0
-181 -123 0
-181 -119 0
182 112 116 -183 0
-182 183 0
-182 -116 0
-182 -112 0
183 105 109 -184 0
-183 184 0
-183 -109 0
-183 -105 0
184 98 102 -185 0
-184 185 0
-184 -102 0
-184 -98 0
185 92 96 -186 0
-185 186 0
-185 -96 0
-185 -92 0
186 85 89 -187 0
-186 187 0
-186 -89 0
-186 -85 0
187 78 82 -188 0
-187 188 0
-187 -82 0
-187 -78 0
188 5 69 75 0
-188 -5 0
-188 -75 0
-188 -69 0
285 0
2 -4 0
-2 4 0
3 -174 0
-3 174 0
3 0

